(set-option :produce-models true)
(set-logic QF_LRA)
(set-info :notes | Strip-packing problem.|)
(declare-fun x0 () Real)
(declare-fun y0 () Real)
(declare-fun x1 () Real)
(declare-fun y1 () Real)
(declare-fun x2 () Real)
(declare-fun y2 () Real)
(declare-fun x3 () Real)
(declare-fun y3 () Real)
(declare-fun x4 () Real)
(declare-fun y4 () Real)
(declare-fun x5 () Real)
(declare-fun y5 () Real)
(declare-fun x6 () Real)
(declare-fun y6 () Real)
(declare-fun x7 () Real)
(declare-fun y7 () Real)
(declare-fun x8 () Real)
(declare-fun y8 () Real)
(declare-fun x9 () Real)
(declare-fun y9 () Real)
(declare-fun x10 () Real)
(declare-fun y10 () Real)
(declare-fun x11 () Real)
(declare-fun y11 () Real)
(declare-fun x12 () Real)
(declare-fun y12 () Real)
(declare-fun x13 () Real)
(declare-fun y13 () Real)
(declare-fun x14 () Real)
(declare-fun y14 () Real)
(declare-fun z () Real)
(declare-fun c () Real)
(assert (and (= c z) (and (>= x0 0) 
(and (>= y0 0) 
(and (>= x1 0) 
(and (>= y1 0) 
(and (>= x2 0) 
(and (>= y2 0) 
(and (>= x3 0) 
(and (>= y3 0) 
(and (>= x4 0) 
(and (>= y4 0) 
(and (>= x5 0) 
(and (>= y5 0) 
(and (>= x6 0) 
(and (>= y6 0) 
(and (>= x7 0) 
(and (>= y7 0) 
(and (>= x8 0) 
(and (>= y8 0) 
(and (>= x9 0) 
(and (>= y9 0) 
(and (>= x10 0) 
(and (>= y10 0) 
(and (>= x11 0) 
(and (>= y11 0) 
(and (>= x12 0) 
(and (>= y12 0) 
(and (>= x13 0) 
(and (>= y13 0) 
(and (>= x14 0) 
(and (>= y14 0) 
(and (>= z 0) 
(and (>= c 0) 
(and (<= (+ x0 0.9135968178) z) 
(and (<= 0.9387667599 y0) 
(and (<= y0 1.0) 
(and (<= x0 (- 5.315691416 0.9135968178)) 
(and (>= x0 0) 
(and (<= (+ x1 0.6938162346) z) 
(and (<= 0.9054671035 y1) 
(and (<= y1 1.0) 
(and (<= x1 (- 5.315691416 0.6938162346)) 
(and (>= x1 0) 
(and (<= (+ x2 0.4883218793) z) 
(and (<= 0.8451766514 y2) 
(and (<= y2 1.0) 
(and (<= x2 (- 5.315691416 0.4883218793)) 
(and (>= x2 0) 
(and (<= (+ x3 0.6861478819) z) 
(and (<= 0.7939966511 y3) 
(and (<= y3 1.0) 
(and (<= x3 (- 5.315691416 0.6861478819)) 
(and (>= x3 0) 
(and (<= (+ x4 0.3633103869) z) 
(and (<= 0.7080427529 y4) 
(and (<= y4 1.0) 
(and (<= x4 (- 5.315691416 0.3633103869)) 
(and (>= x4 0) 
(and (<= (+ x5 0.1178134725) z) 
(and (<= 0.635304198 y5) 
(and (<= y5 1.0) 
(and (<= x5 (- 5.315691416 0.1178134725)) 
(and (>= x5 0) 
(and (<= (+ x6 0.0511595602) z) 
(and (<= 0.5759254697 y6) 
(and (<= y6 1.0) 
(and (<= x6 (- 5.315691416 0.0511595602)) 
(and (>= x6 0) 
(and (<= (+ x7 0.7447831278) z) 
(and (<= 0.4480396606 y7) 
(and (<= y7 1.0) 
(and (<= x7 (- 5.315691416 0.7447831278)) 
(and (>= x7 0) 
(and (<= (+ x8 0.4710646171) z) 
(and (<= 0.4142531453 y8) 
(and (<= y8 1.0) 
(and (<= x8 (- 5.315691416 0.4710646171)) 
(and (>= x8 0) 
(and (<= (+ x9 0.0662499803) z) 
(and (<= 0.4112077141 y9) 
(and (<= y9 1.0) 
(and (<= x9 (- 5.315691416 0.0662499803)) 
(and (>= x9 0) 
(and (<= (+ x10 0.4647216411) z) 
(and (<= 0.3927443092 y10) 
(and (<= y10 1.0) 
(and (<= x10 (- 5.315691416 0.4647216411)) 
(and (>= x10 0) 
(and (<= (+ x11 0.7257704336) z) 
(and (<= 0.3894146532 y11) 
(and (<= y11 1.0) 
(and (<= x11 (- 5.315691416 0.7257704336)) 
(and (>= x11 0) 
(and (<= (+ x12 0.223622537) z) 
(and (<= 0.2473386785 y12) 
(and (<= y12 1.0) 
(and (<= x12 (- 5.315691416 0.223622537)) 
(and (>= x12 0) 
(and (<= (+ x13 0.1611563186) z) 
(and (<= 0.1995348529 y13) 
(and (<= y13 1.0) 
(and (<= x13 (- 5.315691416 0.1611563186)) 
(and (>= x13 0) 
(and (<= (+ x14 0.1566737948) z) 
(and (<= 0.1013553587 y14) 
(and (<= y14 1.0) 
(and (<= x14 (- 5.315691416 0.1566737948)) 
(and (>= x14 0) 
(and (<= c 5.315691416) 
(and (or (<= (+ x0 0.9135968178) x1) (or (<= (+ x1 0.6938162346) x0) (or (>= (- y0 0.9387667599) y1) (or (>= (- y1 0.9054671035) y0))))) 
(and (or (<= (+ x0 0.9135968178) x2) (or (<= (+ x2 0.4883218793) x0) (or (>= (- y0 0.9387667599) y2) (or (>= (- y2 0.8451766514) y0))))) 
(and (or (<= (+ x0 0.9135968178) x3) (or (<= (+ x3 0.6861478819) x0) (or (>= (- y0 0.9387667599) y3) (or (>= (- y3 0.7939966511) y0))))) 
(and (or (<= (+ x0 0.9135968178) x4) (or (<= (+ x4 0.3633103869) x0) (or (>= (- y0 0.9387667599) y4) (or (>= (- y4 0.7080427529) y0))))) 
(and (or (<= (+ x0 0.9135968178) x5) (or (<= (+ x5 0.1178134725) x0) (or (>= (- y0 0.9387667599) y5) (or (>= (- y5 0.635304198) y0))))) 
(and (or (<= (+ x0 0.9135968178) x6) (or (<= (+ x6 0.0511595602) x0) (or (>= (- y0 0.9387667599) y6) (or (>= (- y6 0.5759254697) y0))))) 
(and (or (<= (+ x0 0.9135968178) x7) (or (<= (+ x7 0.7447831278) x0) (or (>= (- y0 0.9387667599) y7) (or (>= (- y7 0.4480396606) y0))))) 
(and (or (<= (+ x0 0.9135968178) x8) (or (<= (+ x8 0.4710646171) x0) (or (>= (- y0 0.9387667599) y8) (or (>= (- y8 0.4142531453) y0))))) 
(and (or (<= (+ x0 0.9135968178) x9) (or (<= (+ x9 0.0662499803) x0) (or (>= (- y0 0.9387667599) y9) (or (>= (- y9 0.4112077141) y0))))) 
(and (or (<= (+ x0 0.9135968178) x10) (or (<= (+ x10 0.4647216411) x0) (or (>= (- y0 0.9387667599) y10) (or (>= (- y10 0.3927443092) y0))))) 
(and (or (<= (+ x0 0.9135968178) x11) (or (<= (+ x11 0.7257704336) x0) (or (>= (- y0 0.9387667599) y11) (or (>= (- y11 0.3894146532) y0))))) 
(and (or (<= (+ x0 0.9135968178) x12) (or (<= (+ x12 0.223622537) x0) (or (>= (- y0 0.9387667599) y12) (or (>= (- y12 0.2473386785) y0))))) 
(and (or (<= (+ x0 0.9135968178) x13) (or (<= (+ x13 0.1611563186) x0) (or (>= (- y0 0.9387667599) y13) (or (>= (- y13 0.1995348529) y0))))) 
(and (or (<= (+ x0 0.9135968178) x14) (or (<= (+ x14 0.1566737948) x0) (or (>= (- y0 0.9387667599) y14) (or (>= (- y14 0.1013553587) y0))))) 
(and (or (<= (+ x1 0.6938162346) x2) (or (<= (+ x2 0.4883218793) x1) (or (>= (- y1 0.9054671035) y2) (or (>= (- y2 0.8451766514) y1))))) 
(and (or (<= (+ x1 0.6938162346) x3) (or (<= (+ x3 0.6861478819) x1) (or (>= (- y1 0.9054671035) y3) (or (>= (- y3 0.7939966511) y1))))) 
(and (or (<= (+ x1 0.6938162346) x4) (or (<= (+ x4 0.3633103869) x1) (or (>= (- y1 0.9054671035) y4) (or (>= (- y4 0.7080427529) y1))))) 
(and (or (<= (+ x1 0.6938162346) x5) (or (<= (+ x5 0.1178134725) x1) (or (>= (- y1 0.9054671035) y5) (or (>= (- y5 0.635304198) y1))))) 
(and (or (<= (+ x1 0.6938162346) x6) (or (<= (+ x6 0.0511595602) x1) (or (>= (- y1 0.9054671035) y6) (or (>= (- y6 0.5759254697) y1))))) 
(and (or (<= (+ x1 0.6938162346) x7) (or (<= (+ x7 0.7447831278) x1) (or (>= (- y1 0.9054671035) y7) (or (>= (- y7 0.4480396606) y1))))) 
(and (or (<= (+ x1 0.6938162346) x8) (or (<= (+ x8 0.4710646171) x1) (or (>= (- y1 0.9054671035) y8) (or (>= (- y8 0.4142531453) y1))))) 
(and (or (<= (+ x1 0.6938162346) x9) (or (<= (+ x9 0.0662499803) x1) (or (>= (- y1 0.9054671035) y9) (or (>= (- y9 0.4112077141) y1))))) 
(and (or (<= (+ x1 0.6938162346) x10) (or (<= (+ x10 0.4647216411) x1) (or (>= (- y1 0.9054671035) y10) (or (>= (- y10 0.3927443092) y1))))) 
(and (or (<= (+ x1 0.6938162346) x11) (or (<= (+ x11 0.7257704336) x1) (or (>= (- y1 0.9054671035) y11) (or (>= (- y11 0.3894146532) y1))))) 
(and (or (<= (+ x1 0.6938162346) x12) (or (<= (+ x12 0.223622537) x1) (or (>= (- y1 0.9054671035) y12) (or (>= (- y12 0.2473386785) y1))))) 
(and (or (<= (+ x1 0.6938162346) x13) (or (<= (+ x13 0.1611563186) x1) (or (>= (- y1 0.9054671035) y13) (or (>= (- y13 0.1995348529) y1))))) 
(and (or (<= (+ x1 0.6938162346) x14) (or (<= (+ x14 0.1566737948) x1) (or (>= (- y1 0.9054671035) y14) (or (>= (- y14 0.1013553587) y1))))) 
(and (or (<= (+ x2 0.4883218793) x3) (or (<= (+ x3 0.6861478819) x2) (or (>= (- y2 0.8451766514) y3) (or (>= (- y3 0.7939966511) y2))))) 
(and (or (<= (+ x2 0.4883218793) x4) (or (<= (+ x4 0.3633103869) x2) (or (>= (- y2 0.8451766514) y4) (or (>= (- y4 0.7080427529) y2))))) 
(and (or (<= (+ x2 0.4883218793) x5) (or (<= (+ x5 0.1178134725) x2) (or (>= (- y2 0.8451766514) y5) (or (>= (- y5 0.635304198) y2))))) 
(and (or (<= (+ x2 0.4883218793) x6) (or (<= (+ x6 0.0511595602) x2) (or (>= (- y2 0.8451766514) y6) (or (>= (- y6 0.5759254697) y2))))) 
(and (or (<= (+ x2 0.4883218793) x7) (or (<= (+ x7 0.7447831278) x2) (or (>= (- y2 0.8451766514) y7) (or (>= (- y7 0.4480396606) y2))))) 
(and (or (<= (+ x2 0.4883218793) x8) (or (<= (+ x8 0.4710646171) x2) (or (>= (- y2 0.8451766514) y8) (or (>= (- y8 0.4142531453) y2))))) 
(and (or (<= (+ x2 0.4883218793) x9) (or (<= (+ x9 0.0662499803) x2) (or (>= (- y2 0.8451766514) y9) (or (>= (- y9 0.4112077141) y2))))) 
(and (or (<= (+ x2 0.4883218793) x10) (or (<= (+ x10 0.4647216411) x2) (or (>= (- y2 0.8451766514) y10) (or (>= (- y10 0.3927443092) y2))))) 
(and (or (<= (+ x2 0.4883218793) x11) (or (<= (+ x11 0.7257704336) x2) (or (>= (- y2 0.8451766514) y11) (or (>= (- y11 0.3894146532) y2))))) 
(and (or (<= (+ x2 0.4883218793) x12) (or (<= (+ x12 0.223622537) x2) (or (>= (- y2 0.8451766514) y12) (or (>= (- y12 0.2473386785) y2))))) 
(and (or (<= (+ x2 0.4883218793) x13) (or (<= (+ x13 0.1611563186) x2) (or (>= (- y2 0.8451766514) y13) (or (>= (- y13 0.1995348529) y2))))) 
(and (or (<= (+ x2 0.4883218793) x14) (or (<= (+ x14 0.1566737948) x2) (or (>= (- y2 0.8451766514) y14) (or (>= (- y14 0.1013553587) y2))))) 
(and (or (<= (+ x3 0.6861478819) x4) (or (<= (+ x4 0.3633103869) x3) (or (>= (- y3 0.7939966511) y4) (or (>= (- y4 0.7080427529) y3))))) 
(and (or (<= (+ x3 0.6861478819) x5) (or (<= (+ x5 0.1178134725) x3) (or (>= (- y3 0.7939966511) y5) (or (>= (- y5 0.635304198) y3))))) 
(and (or (<= (+ x3 0.6861478819) x6) (or (<= (+ x6 0.0511595602) x3) (or (>= (- y3 0.7939966511) y6) (or (>= (- y6 0.5759254697) y3))))) 
(and (or (<= (+ x3 0.6861478819) x7) (or (<= (+ x7 0.7447831278) x3) (or (>= (- y3 0.7939966511) y7) (or (>= (- y7 0.4480396606) y3))))) 
(and (or (<= (+ x3 0.6861478819) x8) (or (<= (+ x8 0.4710646171) x3) (or (>= (- y3 0.7939966511) y8) (or (>= (- y8 0.4142531453) y3))))) 
(and (or (<= (+ x3 0.6861478819) x9) (or (<= (+ x9 0.0662499803) x3) (or (>= (- y3 0.7939966511) y9) (or (>= (- y9 0.4112077141) y3))))) 
(and (or (<= (+ x3 0.6861478819) x10) (or (<= (+ x10 0.4647216411) x3) (or (>= (- y3 0.7939966511) y10) (or (>= (- y10 0.3927443092) y3))))) 
(and (or (<= (+ x3 0.6861478819) x11) (or (<= (+ x11 0.7257704336) x3) (or (>= (- y3 0.7939966511) y11) (or (>= (- y11 0.3894146532) y3))))) 
(and (or (<= (+ x3 0.6861478819) x12) (or (<= (+ x12 0.223622537) x3) (or (>= (- y3 0.7939966511) y12) (or (>= (- y12 0.2473386785) y3))))) 
(and (or (<= (+ x3 0.6861478819) x13) (or (<= (+ x13 0.1611563186) x3) (or (>= (- y3 0.7939966511) y13) (or (>= (- y13 0.1995348529) y3))))) 
(and (or (<= (+ x3 0.6861478819) x14) (or (<= (+ x14 0.1566737948) x3) (or (>= (- y3 0.7939966511) y14) (or (>= (- y14 0.1013553587) y3))))) 
(and (or (<= (+ x4 0.3633103869) x5) (or (<= (+ x5 0.1178134725) x4) (or (>= (- y4 0.7080427529) y5) (or (>= (- y5 0.635304198) y4))))) 
(and (or (<= (+ x4 0.3633103869) x6) (or (<= (+ x6 0.0511595602) x4) (or (>= (- y4 0.7080427529) y6) (or (>= (- y6 0.5759254697) y4))))) 
(and (or (<= (+ x4 0.3633103869) x7) (or (<= (+ x7 0.7447831278) x4) (or (>= (- y4 0.7080427529) y7) (or (>= (- y7 0.4480396606) y4))))) 
(and (or (<= (+ x4 0.3633103869) x8) (or (<= (+ x8 0.4710646171) x4) (or (>= (- y4 0.7080427529) y8) (or (>= (- y8 0.4142531453) y4))))) 
(and (or (<= (+ x4 0.3633103869) x9) (or (<= (+ x9 0.0662499803) x4) (or (>= (- y4 0.7080427529) y9) (or (>= (- y9 0.4112077141) y4))))) 
(and (or (<= (+ x4 0.3633103869) x10) (or (<= (+ x10 0.4647216411) x4) (or (>= (- y4 0.7080427529) y10) (or (>= (- y10 0.3927443092) y4))))) 
(and (or (<= (+ x4 0.3633103869) x11) (or (<= (+ x11 0.7257704336) x4) (or (>= (- y4 0.7080427529) y11) (or (>= (- y11 0.3894146532) y4))))) 
(and (or (<= (+ x4 0.3633103869) x12) (or (<= (+ x12 0.223622537) x4) (or (>= (- y4 0.7080427529) y12) (or (>= (- y12 0.2473386785) y4))))) 
(and (or (<= (+ x4 0.3633103869) x13) (or (<= (+ x13 0.1611563186) x4) (or (>= (- y4 0.7080427529) y13) (or (>= (- y13 0.1995348529) y4))))) 
(and (or (<= (+ x4 0.3633103869) x14) (or (<= (+ x14 0.1566737948) x4) (or (>= (- y4 0.7080427529) y14) (or (>= (- y14 0.1013553587) y4))))) 
(and (or (<= (+ x5 0.1178134725) x6) (or (<= (+ x6 0.0511595602) x5) (or (>= (- y5 0.635304198) y6) (or (>= (- y6 0.5759254697) y5))))) 
(and (or (<= (+ x5 0.1178134725) x7) (or (<= (+ x7 0.7447831278) x5) (or (>= (- y5 0.635304198) y7) (or (>= (- y7 0.4480396606) y5))))) 
(and (or (<= (+ x5 0.1178134725) x8) (or (<= (+ x8 0.4710646171) x5) (or (>= (- y5 0.635304198) y8) (or (>= (- y8 0.4142531453) y5))))) 
(and (or (<= (+ x5 0.1178134725) x9) (or (<= (+ x9 0.0662499803) x5) (or (>= (- y5 0.635304198) y9) (or (>= (- y9 0.4112077141) y5))))) 
(and (or (<= (+ x5 0.1178134725) x10) (or (<= (+ x10 0.4647216411) x5) (or (>= (- y5 0.635304198) y10) (or (>= (- y10 0.3927443092) y5))))) 
(and (or (<= (+ x5 0.1178134725) x11) (or (<= (+ x11 0.7257704336) x5) (or (>= (- y5 0.635304198) y11) (or (>= (- y11 0.3894146532) y5))))) 
(and (or (<= (+ x5 0.1178134725) x12) (or (<= (+ x12 0.223622537) x5) (or (>= (- y5 0.635304198) y12) (or (>= (- y12 0.2473386785) y5))))) 
(and (or (<= (+ x5 0.1178134725) x13) (or (<= (+ x13 0.1611563186) x5) (or (>= (- y5 0.635304198) y13) (or (>= (- y13 0.1995348529) y5))))) 
(and (or (<= (+ x5 0.1178134725) x14) (or (<= (+ x14 0.1566737948) x5) (or (>= (- y5 0.635304198) y14) (or (>= (- y14 0.1013553587) y5))))) 
(and (or (<= (+ x6 0.0511595602) x7) (or (<= (+ x7 0.7447831278) x6) (or (>= (- y6 0.5759254697) y7) (or (>= (- y7 0.4480396606) y6))))) 
(and (or (<= (+ x6 0.0511595602) x8) (or (<= (+ x8 0.4710646171) x6) (or (>= (- y6 0.5759254697) y8) (or (>= (- y8 0.4142531453) y6))))) 
(and (or (<= (+ x6 0.0511595602) x9) (or (<= (+ x9 0.0662499803) x6) (or (>= (- y6 0.5759254697) y9) (or (>= (- y9 0.4112077141) y6))))) 
(and (or (<= (+ x6 0.0511595602) x10) (or (<= (+ x10 0.4647216411) x6) (or (>= (- y6 0.5759254697) y10) (or (>= (- y10 0.3927443092) y6))))) 
(and (or (<= (+ x6 0.0511595602) x11) (or (<= (+ x11 0.7257704336) x6) (or (>= (- y6 0.5759254697) y11) (or (>= (- y11 0.3894146532) y6))))) 
(and (or (<= (+ x6 0.0511595602) x12) (or (<= (+ x12 0.223622537) x6) (or (>= (- y6 0.5759254697) y12) (or (>= (- y12 0.2473386785) y6))))) 
(and (or (<= (+ x6 0.0511595602) x13) (or (<= (+ x13 0.1611563186) x6) (or (>= (- y6 0.5759254697) y13) (or (>= (- y13 0.1995348529) y6))))) 
(and (or (<= (+ x6 0.0511595602) x14) (or (<= (+ x14 0.1566737948) x6) (or (>= (- y6 0.5759254697) y14) (or (>= (- y14 0.1013553587) y6))))) 
(and (or (<= (+ x7 0.7447831278) x8) (or (<= (+ x8 0.4710646171) x7) (or (>= (- y7 0.4480396606) y8) (or (>= (- y8 0.4142531453) y7))))) 
(and (or (<= (+ x7 0.7447831278) x9) (or (<= (+ x9 0.0662499803) x7) (or (>= (- y7 0.4480396606) y9) (or (>= (- y9 0.4112077141) y7))))) 
(and (or (<= (+ x7 0.7447831278) x10) (or (<= (+ x10 0.4647216411) x7) (or (>= (- y7 0.4480396606) y10) (or (>= (- y10 0.3927443092) y7))))) 
(and (or (<= (+ x7 0.7447831278) x11) (or (<= (+ x11 0.7257704336) x7) (or (>= (- y7 0.4480396606) y11) (or (>= (- y11 0.3894146532) y7))))) 
(and (or (<= (+ x7 0.7447831278) x12) (or (<= (+ x12 0.223622537) x7) (or (>= (- y7 0.4480396606) y12) (or (>= (- y12 0.2473386785) y7))))) 
(and (or (<= (+ x7 0.7447831278) x13) (or (<= (+ x13 0.1611563186) x7) (or (>= (- y7 0.4480396606) y13) (or (>= (- y13 0.1995348529) y7))))) 
(and (or (<= (+ x7 0.7447831278) x14) (or (<= (+ x14 0.1566737948) x7) (or (>= (- y7 0.4480396606) y14) (or (>= (- y14 0.1013553587) y7))))) 
(and (or (<= (+ x8 0.4710646171) x9) (or (<= (+ x9 0.0662499803) x8) (or (>= (- y8 0.4142531453) y9) (or (>= (- y9 0.4112077141) y8))))) 
(and (or (<= (+ x8 0.4710646171) x10) (or (<= (+ x10 0.4647216411) x8) (or (>= (- y8 0.4142531453) y10) (or (>= (- y10 0.3927443092) y8))))) 
(and (or (<= (+ x8 0.4710646171) x11) (or (<= (+ x11 0.7257704336) x8) (or (>= (- y8 0.4142531453) y11) (or (>= (- y11 0.3894146532) y8))))) 
(and (or (<= (+ x8 0.4710646171) x12) (or (<= (+ x12 0.223622537) x8) (or (>= (- y8 0.4142531453) y12) (or (>= (- y12 0.2473386785) y8))))) 
(and (or (<= (+ x8 0.4710646171) x13) (or (<= (+ x13 0.1611563186) x8) (or (>= (- y8 0.4142531453) y13) (or (>= (- y13 0.1995348529) y8))))) 
(and (or (<= (+ x8 0.4710646171) x14) (or (<= (+ x14 0.1566737948) x8) (or (>= (- y8 0.4142531453) y14) (or (>= (- y14 0.1013553587) y8))))) 
(and (or (<= (+ x9 0.0662499803) x10) (or (<= (+ x10 0.4647216411) x9) (or (>= (- y9 0.4112077141) y10) (or (>= (- y10 0.3927443092) y9))))) 
(and (or (<= (+ x9 0.0662499803) x11) (or (<= (+ x11 0.7257704336) x9) (or (>= (- y9 0.4112077141) y11) (or (>= (- y11 0.3894146532) y9))))) 
(and (or (<= (+ x9 0.0662499803) x12) (or (<= (+ x12 0.223622537) x9) (or (>= (- y9 0.4112077141) y12) (or (>= (- y12 0.2473386785) y9))))) 
(and (or (<= (+ x9 0.0662499803) x13) (or (<= (+ x13 0.1611563186) x9) (or (>= (- y9 0.4112077141) y13) (or (>= (- y13 0.1995348529) y9))))) 
(and (or (<= (+ x9 0.0662499803) x14) (or (<= (+ x14 0.1566737948) x9) (or (>= (- y9 0.4112077141) y14) (or (>= (- y14 0.1013553587) y9))))) 
(and (or (<= (+ x10 0.4647216411) x11) (or (<= (+ x11 0.7257704336) x10) (or (>= (- y10 0.3927443092) y11) (or (>= (- y11 0.3894146532) y10))))) 
(and (or (<= (+ x10 0.4647216411) x12) (or (<= (+ x12 0.223622537) x10) (or (>= (- y10 0.3927443092) y12) (or (>= (- y12 0.2473386785) y10))))) 
(and (or (<= (+ x10 0.4647216411) x13) (or (<= (+ x13 0.1611563186) x10) (or (>= (- y10 0.3927443092) y13) (or (>= (- y13 0.1995348529) y10))))) 
(and (or (<= (+ x10 0.4647216411) x14) (or (<= (+ x14 0.1566737948) x10) (or (>= (- y10 0.3927443092) y14) (or (>= (- y14 0.1013553587) y10))))) 
(and (or (<= (+ x11 0.7257704336) x12) (or (<= (+ x12 0.223622537) x11) (or (>= (- y11 0.3894146532) y12) (or (>= (- y12 0.2473386785) y11))))) 
(and (or (<= (+ x11 0.7257704336) x13) (or (<= (+ x13 0.1611563186) x11) (or (>= (- y11 0.3894146532) y13) (or (>= (- y13 0.1995348529) y11))))) 
(and (or (<= (+ x11 0.7257704336) x14) (or (<= (+ x14 0.1566737948) x11) (or (>= (- y11 0.3894146532) y14) (or (>= (- y14 0.1013553587) y11))))) 
(and (or (<= (+ x12 0.223622537) x13) (or (<= (+ x13 0.1611563186) x12) (or (>= (- y12 0.2473386785) y13) (or (>= (- y13 0.1995348529) y12))))) 
(and (or (<= (+ x12 0.223622537) x14) (or (<= (+ x14 0.1566737948) x12) (or (>= (- y12 0.2473386785) y14) (or (>= (- y14 0.1013553587) y12))))) 
(and (or (<= (+ x13 0.1611563186) x14) (or (<= (+ x14 0.1566737948) x13) (or (>= (- y13 0.1995348529) y14) (or (>= (- y14 0.1013553587) y13))))) )))))))))))))))))))))))))))))))))))))))))))))))))))))))))))))))))))))))))))))))))))))))))))))))))))))))))))))))))))))))))))))))))))))))))))))))))))))))))))))))))))))))))))))))))))))))))))))))))))))))))))))))))))))))
(minimize c)
(check-sat)
(get-objectives)
(exit)
